
Gurobi 7.5.2 (linux64) logging started Sat Jul  7 16:00:18 2018

Changed value of parameter LogFile to result/ilp/simNo_6-n_100-m_40-s_4-minVAF_0.05-cov_10000-k_2-fn_0.10-fp_0.0001-na_0.15.ILP.gurobiSolverLog
   Prev: gurobi.log  Default: 
Changed value of parameter TimeLimit to 86400.0
   Prev: 1e+100  Min: 0.0  Max: 1e+100  Default: 1e+100
Optimize a model with 639293 rows, 10765 columns and 1940420 nonzeros
Variable types: 0 continuous, 10765 integer (10765 binary)
Coefficient statistics:
  Matrix range     [4e-05, 4e+00]
  Objective range  [5e-01, 9e+00]
  Bounds range     [1e+00, 1e+00]
  RHS range        [3e-01, 2e+00]
Found heuristic solution: objective -15570.58384
Presolve removed 132317 rows and 1028 columns (presolve time = 5s) ...
Presolve removed 132900 rows and 1028 columns (presolve time = 11s) ...
Presolve removed 191200 rows and 1611 columns (presolve time = 16s) ...
Presolve removed 191200 rows and 1611 columns
Presolve time: 17.13s
Presolved: 448093 rows, 9154 columns, 1346562 nonzeros
Variable types: 0 continuous, 9154 integer (9154 binary)
Presolved: 9154 rows, 457247 columns, 1355716 nonzeros

Presolve removed 9154 rows and 457247 columns

Root simplex log...

Iteration    Objective       Primal Inf.    Dual Inf.      Time
       0    1.7543852e+01   0.000000e+00   7.622900e+04     21s
   26425   -2.5878479e+02   5.432263e-03   0.000000e+00     25s
   26433   -2.5878440e+02   0.000000e+00   0.000000e+00     25s
   26433   -2.5878440e+02   0.000000e+00   0.000000e+00     26s

Root relaxation: objective -2.587844e+02, 26433 iterations, 7.39 seconds
Total elapsed time = 56.64s
Total elapsed time = 91.34s
Total elapsed time = 114.39s

    Nodes    |    Current Node    |     Objective Bounds      |     Work
 Expl Unexpl |  Obj  Depth IntInf | Incumbent    BestBd   Gap | It/Node Time

     0     0 -258.78440    0 1017 -15570.584 -258.78440  98.3%     -  117s
H    0     0                    -364.8709608 -258.78440  29.1%     -  120s
H    0     0                    -299.9513756 -258.78440  13.7%     -  122s
     0     0 -260.76747    0 1115 -299.95138 -260.76747  13.1%     -  130s
     0     0 -260.76747    0 1113 -299.95138 -260.76747  13.1%     -  139s
     0     0 -261.75897    0 1045 -299.95138 -261.75897  12.7%     -  148s
H    0     0                    -295.7277371 -261.75897  11.5%     -  152s
     0     0 -261.75897    0 1039 -295.72774 -261.75897  11.5%     -  153s
     0     0 -265.07385    0  969 -295.72774 -265.07385  10.4%     -  168s
H    0     0                    -288.1319041 -265.07385  8.00%     -  172s
     0     0 -265.07385    0  963 -288.13190 -265.07385  8.00%     -  173s
     0     0 -266.72635    0  959 -288.13190 -266.72635  7.43%     -  186s
     0     0 -267.38735    0  736 -288.13190 -267.38735  7.20%     -  214s
     0     0 -268.37884    0  733 -288.13190 -268.37884  6.86%     -  223s
     0     0 -268.37884    0  724 -288.13190 -268.37884  6.86%     -  226s
     0     0 -268.47540    0  852 -288.13190 -268.47540  6.82%     -  253s
     0     0 -269.37034    0  731 -288.13190 -269.37034  6.51%     -  292s
     0     0 -269.37034    0  729 -288.13190 -269.37034  6.51%     -  296s
     0     0 -270.36184    0  736 -288.13190 -270.36184  6.17%     -  309s
     0     0 -270.36184    0  750 -288.13190 -270.36184  6.17%     -  327s
     0     0 -270.68244    0  824 -288.13190 -270.68244  6.06%     -  450s
     0     0 -271.11370    0  732 -288.13190 -271.11370  5.91%     -  493s
     0     0 -271.11370    0  740 -288.13190 -271.11370  5.91%     -  500s
     0     0 -272.10527    0  791 -288.13190 -272.10527  5.56%     -  625s
     0     0 -272.10539    0  777 -288.13190 -272.10539  5.56%     -  635s
     0     0 -273.09670    0  972 -288.13190 -273.09670  5.22%     -  766s
     0     0 -273.09670    0  973 -288.13190 -273.09670  5.22%     -  773s
     0     0 -274.15263    0  884 -288.13190 -274.15263  4.85%     -  974s
     0     0 -275.14418    0  864 -288.13190 -275.14418  4.51%     - 1850s
     0     0 -275.14418    0  865 -288.13190 -275.14418  4.51%     - 1854s
     0     0 -276.13567    0  868 -288.13190 -276.13567  4.16%     - 2077s
     0     0 -276.13567    0  874 -288.13190 -276.13567  4.16%     - 2084s
     0     0 -276.67794    0  696 -288.13190 -276.67794  3.98%     - 3446s
     0     0 -276.67794    0  697 -288.13190 -276.67794  3.98%     - 3450s
     0     0 -277.64535    0  903 -288.13190 -277.64535  3.64%     - 7391s
     0     0 -277.68741    0  873 -288.13190 -277.68741  3.62%     - 7411s
     0     0 -277.68741    0  856 -288.13190 -277.68741  3.62%     - 7416s
     0     0 -277.68753    0 1008 -288.13190 -277.68753  3.62%     - 7437s
     0     0 -277.68753    0 1009 -288.13190 -277.68753  3.62%     - 7447s
     0     0 -278.18320    0  808 -288.13190 -278.18320  3.45%     - 8748s
     0     0 -278.54948    0  741 -288.13190 -278.54948  3.33%     - 10480s
     0     0 -278.66806    0  848 -288.13190 -278.66806  3.28%     - 10914s
     0     0 -278.66806    0  859 -288.13190 -278.66806  3.28%     - 10925s
     0     0 -278.66806    0  878 -288.13190 -278.66806  3.28%     - 10943s
     0     0 -278.67112    0  854 -288.13190 -278.67112  3.28%     - 10984s
     0     0 -278.67112    0  860 -288.13190 -278.67112  3.28%     - 10989s
     0     0 -280.24919    0  754 -288.13190 -280.24919  2.74%     - 20514s
     0     0 -280.24919    0  760 -288.13190 -280.24919  2.74%     - 20521s
     0     0 -280.84941    0  942 -288.13190 -280.84941  2.53%     - 22223s
     0     0 -280.84941    0 1000 -288.13190 -280.84941  2.53%     - 22414s
     0     0 -280.84941    0 1046 -288.13190 -280.84941  2.53%     - 22420s
     0     0 -280.87530    0 1038 -288.13190 -280.87530  2.52%     - 22422s
     0     0 -280.93196    0  969 -288.13190 -280.93196  2.50%     - 22424s
     0     0 -280.94010    0 1045 -288.13190 -280.94010  2.50%     - 22424s
     0     0 -280.94010    0 1044 -288.13190 -280.94010  2.50%     - 22425s
     0     0 -281.67891    0  852 -288.13190 -281.67891  2.24%     - 22435s
     0     0 -281.67891    0  788 -288.13190 -281.67891  2.24%     - 22443s
     0     0 -281.67891    0  599 -288.13190 -281.67891  2.24%     - 22446s
     0     0 -281.67891    0  632 -288.13190 -281.67891  2.24%     - 22447s
     0     0 -281.84795    0  610 -288.13190 -281.84795  2.18%     - 22447s
     0     0 -281.87593    0  362 -288.13190 -281.87593  2.17%     - 22447s
     0     0 -281.91270    0  579 -288.13190 -281.91270  2.16%     - 22448s
     0     0 -281.91270    0  602 -288.13190 -281.91270  2.16%     - 22448s
     0     0 -282.26275    0  640 -288.13190 -282.26275  2.04%     - 22449s
     0     0 -282.26275    0  636 -288.13190 -282.26275  2.04%     - 22449s
     0     0 -282.43588    0  648 -288.13190 -282.43588  1.98%     - 22450s
     0     0 -282.48813    0  637 -288.13190 -282.48813  1.96%     - 22450s
     0     0 -282.49470    0  637 -288.13190 -282.49470  1.96%     - 22451s
     0     0 -282.49715    0  641 -288.13190 -282.49715  1.96%     - 22451s
     0     0 -282.55529    0  645 -288.13190 -282.55529  1.94%     - 22451s
     0     0 -282.55529    0  645 -288.13190 -282.55529  1.94%     - 22452s
     0     0 -282.61221    0  642 -288.13190 -282.61221  1.92%     - 22452s
     0     0 -282.66479    0  629 -288.13190 -282.66479  1.90%     - 22453s
     0     0 -282.67585    0  619 -288.13190 -282.67585  1.89%     - 22453s
     0     0 -282.70334    0  585 -288.13190 -282.70334  1.88%     - 22454s
     0     0 -282.70334    0  619 -288.13190 -282.70334  1.88%     - 22454s
     0     0 -282.71280    0  570 -288.13190 -282.71280  1.88%     - 22455s
     0     0 -282.71280    0  567 -288.13190 -282.71280  1.88%     - 22455s
     0     0 -282.71280    0  571 -288.13190 -282.71280  1.88%     - 22456s
     0     0 -282.71280    0  571 -288.13190 -282.71280  1.88%     - 22456s
     0     0 -282.71280    0  549 -288.13190 -282.71280  1.88%     - 22460s
     0     0 -282.71280    0  553 -288.13190 -282.71280  1.88%     - 22461s
     0     0 -282.71280    0  549 -288.13190 -282.71280  1.88%     - 22463s
     0     0 -282.71280    0  554 -288.13190 -282.71280  1.88%     - 22463s
     0     0 -282.71280    0  553 -288.13190 -282.71280  1.88%     - 22466s
     0     0 -282.71280    0  553 -288.13190 -282.71280  1.88%     - 22477s
     0     2 -283.08279    0  553 -288.13190 -283.08279  1.75%     - 22481s
    16     8     cutoff    8      -288.13190 -283.55228  1.59%   280 22485s
    46     0     cutoff    5      -288.13190 -288.13190  0.00%   299 22490s

Cutting planes:
  Gomory: 5
  Implied bound: 115
  Clique: 9
  MIR: 1
  Zero half: 121

Explored 47 nodes (836281 simplex iterations) in 22490.17 seconds
Thread count was 1 (of 80 available processors)

Solution count 6: -288.132 -288.132 -295.728 ... -15570.6

Optimal solution found (tolerance 1.00e-04)
Best objective -2.881319041140e+02, best bound -2.881319041140e+02, gap 0.0000%
